\ENCODING=ISO-8859-1
\Problem name: IloCplex

Maximize
 obj: 40.5 x(1)#2 - 10000000 tn(1)#16 - 10000000 tp(1)#17 + 40.5 x(2)#22
      - 10000000 tn(2)#45 - 10000000 tp(2)#46 + 0.8 x(3)#48 - 10000000 tn(3)#69
      - 10000000 tp(3)#70 + 40.5 x(4)#72 - 10000000 tn(4)#93
      - 10000000 tp(4)#94 + 40.5 x(5)#96 - 10000000 tn(5)#117
      - 10000000 tp(5)#118
Subject To
 c1:   s(0)#0 + _ec(1)#1 - 4 x(1)#2 - 0.2 df(11)#3 - 0.2 dt(11)#4
       - 0.2 df(12)#5 - 0.2 dt(12)#6 >= 0
 c2:   s(0)#0 + _ec(1)#1 - 4 x(1)#2 - 0.2 df(11)#3 - 0.2 dt(11)#4
       - 0.2 df(12)#5 - 0.2 dt(12)#6 - s(1)#7  = 0
 c3:   s(0)#0 - 0.2 df(11)#3 - 0.2 df(12)#5 >= 0
 c4:   df(11)#3 - 2 bn(112)#8 - 2 an(11)#9  = 0
 c5:   dt(11)#4 - 2 bp(112)#10 - 2 ap(11)#11  = 0
 c6:   df(12)#5 - 2 bn(121)#12 - 2 an(12)#13  = 0
 c7:   dt(12)#6 - 2 bp(121)#14 - 2 ap(12)#15  = 0
 c8:   - _ec(1)#1 + tn(1)#16 + tp(1)#17 >= 0
 c9:   - _ec(1)#1 - 2 bn(112)#8 - 2 an(11)#9 - 2 bp(112)#10 - 2 ap(11)#11
       - 0.666666666666667 bn(121)#12 - 0.666666666666667 an(12)#13
       - 0.666666666666667 bp(121)#14 - 0.666666666666667 ap(12)#15 + tn(1)#16
       + tp(1)#17 + 60 y(11)#18 + 20 y(12)#19 >= 0
 c10:  - 2 bn(112)#8 - 2 an(11)#9 - 2 bp(112)#10 - 2 ap(11)#11
       - 0.666666666666667 bn(121)#12 - 0.666666666666667 an(12)#13
       - 0.666666666666667 bp(121)#14 - 0.666666666666667 ap(12)#15 - tp(1)#17
       + 60 y(11)#18 + 20 y(12)#19 <= 0
 c11:  - 2 bn(112)#8 - 2 an(11)#9 - 2 bp(112)#10 - 2 ap(11)#11
       - 0.666666666666667 bn(121)#12 - 0.666666666666667 an(12)#13
       - 0.666666666666667 bp(121)#14 - 0.666666666666667 ap(12)#15 - tn(1)#16
       + 60 y(11)#18 + 20 y(12)#19 >= 0
 c12:  _ec(1)#1 + sh(1)#20 <= 24
 c13:  an(11)#9 - y(11)#18 <= 0
 c14:  an(11)#9 + x(0)#21 <= 0
 c15:  ap(11)#11 - y(11)#18 - x(0)#21 >= -1
 c16:  ap(11)#11 - y(11)#18 <= 0
 c17:  ap(11)#11 - x(2)#22 <= 0
 c18:  ap(11)#11 - y(11)#18 - x(2)#22 >= -1
 c19:  bn(111)#23 - y(01)#24 <= 0
 c20:  - y(11)#18 + bn(111)#23 <= 0
 c21:  - y(11)#18 + bn(111)#23 - y(01)#24 >= -1
 c22:  - y(11)#18 + bp(111)#25 <= 0
 c23:  bp(111)#25 - y(21)#26 <= 0
 c24:  - y(11)#18 + bp(111)#25 - y(21)#26 >= -1
 c25:  bn(112)#8 - y(02)#27 <= 0
 c26:  bn(112)#8 - y(11)#18 <= 0
 c27:  bn(112)#8 - y(11)#18 - y(02)#27 >= -1
 c28:  bp(112)#10 - y(11)#18 <= 0
 c29:  bp(112)#10 - y(22)#28 <= 0
 c30:  bp(112)#10 - y(11)#18 - y(22)#28 >= -1
 c31:  an(12)#13 - y(12)#19 <= 0
 c32:  an(12)#13 + x(0)#21 <= 0
 c33:  ap(12)#15 - y(12)#19 - x(0)#21 >= -1
 c34:  ap(12)#15 - y(12)#19 <= 0
 c35:  ap(12)#15 - x(2)#22 <= 0
 c36:  ap(12)#15 - y(12)#19 - x(2)#22 >= -1
 c37:  bn(121)#12 - y(01)#24 <= 0
 c38:  bn(121)#12 - y(12)#19 <= 0
 c39:  bn(121)#12 - y(12)#19 - y(01)#24 >= -1
 c40:  bp(121)#14 - y(12)#19 <= 0
 c41:  bp(121)#14 - y(21)#26 <= 0
 c42:  bp(121)#14 - y(12)#19 - y(21)#26 >= -1
 c43:  - y(02)#27 + bn(122)#29 <= 0
 c44:  - y(12)#19 + bn(122)#29 <= 0
 c45:  - y(12)#19 - y(02)#27 + bn(122)#29 >= -1
 c46:  - y(12)#19 + bp(122)#30 <= 0
 c47:  - y(22)#28 + bp(122)#30 <= 0
 c48:  - y(12)#19 - y(22)#28 + bp(122)#30 >= -1
 c49:  - x(0)#21 - y(01)#24 - y(02)#27  = -1
 c50:  s(1)#7 - 4 x(2)#22 + _ec(2)#31 - 0.2 df(21)#32 - 0.2 dt(21)#33
       - 0.2 df(22)#34 - 0.2 dt(22)#35 >= 0
 c51:  s(1)#7 - 4 x(2)#22 + _ec(2)#31 - 0.2 df(21)#32 - 0.2 dt(21)#33
       - 0.2 df(22)#34 - 0.2 dt(22)#35 - s(2)#36  = 0
 c52:  s(1)#7 - 0.2 df(21)#32 - 0.2 df(22)#34 >= 0
 c53:  df(21)#32 - 2 bn(212)#37 - 2 an(21)#38  = 0
 c54:  dt(21)#33 - 2 bp(212)#39 - ap(21)#40  = 0
 c55:  df(22)#34 - 2 bn(221)#41 - 2 an(22)#42  = 0
 c56:  dt(22)#35 - 2 bp(221)#43 - 2 ap(22)#44  = 0
 c57:  - _ec(2)#31 + tn(2)#45 + tp(2)#46 >= 0
 c58:  60 y(21)#26 + 20 y(22)#28 - _ec(2)#31 - 2 bn(212)#37 - 2 an(21)#38
       - 2 bp(212)#39 - ap(21)#40 - 0.666666666666667 bn(221)#41
       - 0.666666666666667 an(22)#42 - 0.666666666666667 bp(221)#43
       - 0.666666666666667 ap(22)#44 + tn(2)#45 + tp(2)#46 >= 0
 c59:  60 y(21)#26 + 20 y(22)#28 - 2 bn(212)#37 - 2 an(21)#38 - 2 bp(212)#39
       - ap(21)#40 - 0.666666666666667 bn(221)#41 - 0.666666666666667 an(22)#42
       - 0.666666666666667 bp(221)#43 - 0.666666666666667 ap(22)#44 - tp(2)#46
       <= 0
 c60:  60 y(21)#26 + 20 y(22)#28 - 2 bn(212)#37 - 2 an(21)#38 - 2 bp(212)#39
       - ap(21)#40 - 0.666666666666667 bn(221)#41 - 0.666666666666667 an(22)#42
       - 0.666666666666667 bp(221)#43 - 0.666666666666667 ap(22)#44 - tn(2)#45
       >= 0
 c61:  _ec(2)#31 + sh(2)#47 <= 24
 c62:  - y(21)#26 + an(21)#38 <= 0
 c63:  x(1)#2 + an(21)#38 <= 0
 c64:  - x(1)#2 - y(21)#26 + ap(21)#40 >= -1
 c65:  - y(21)#26 + ap(21)#40 <= 0
 c66:  ap(21)#40 - x(3)#48 <= 0
 c67:  - y(21)#26 + ap(21)#40 - x(3)#48 >= -1
 c68:  - y(11)#18 + bn(211)#49 <= 0
 c69:  - y(21)#26 + bn(211)#49 <= 0
 c70:  - y(11)#18 - y(21)#26 + bn(211)#49 >= -1
 c71:  - y(21)#26 + bp(211)#50 <= 0
 c72:  bp(211)#50 - y(31)#51 <= 0
 c73:  - y(21)#26 + bp(211)#50 - y(31)#51 >= -1
 c74:  - y(12)#19 + bn(212)#37 <= 0
 c75:  - y(21)#26 + bn(212)#37 <= 0
 c76:  - y(12)#19 - y(21)#26 + bn(212)#37 >= -1
 c77:  - y(21)#26 + bp(212)#39 <= 0
 c78:  bp(212)#39 - y(32)#52 <= 0
 c79:  - y(21)#26 + bp(212)#39 - y(32)#52 >= -1
 c80:  - y(22)#28 + an(22)#42 <= 0
 c81:  x(1)#2 + an(22)#42 <= 0
 c82:  - x(1)#2 - y(22)#28 + ap(22)#44 >= -1
 c83:  - y(22)#28 + ap(22)#44 <= 0
 c84:  ap(22)#44 - x(3)#48 <= 0
 c85:  - y(22)#28 + ap(22)#44 - x(3)#48 >= -1
 c86:  - y(11)#18 + bn(221)#41 <= 0
 c87:  - y(22)#28 + bn(221)#41 <= 0
 c88:  - y(11)#18 - y(22)#28 + bn(221)#41 >= -1
 c89:  - y(22)#28 + bp(221)#43 <= 0
 c90:  bp(221)#43 - y(31)#51 <= 0
 c91:  - y(22)#28 + bp(221)#43 - y(31)#51 >= -1
 c92:  - y(12)#19 + bn(222)#53 <= 0
 c93:  - y(22)#28 + bn(222)#53 <= 0
 c94:  - y(12)#19 - y(22)#28 + bn(222)#53 >= -1
 c95:  - y(22)#28 + bp(222)#54 <= 0
 c96:  - y(32)#52 + bp(222)#54 <= 0
 c97:  - y(22)#28 - y(32)#52 + bp(222)#54 >= -1
 c98:  - x(1)#2 - y(11)#18 - y(12)#19  = -1
 c99:  s(2)#36 - 0.4 x(3)#48 + _ec(3)#55 - 0.2 df(31)#56 - 0.2 dt(31)#57
       - 0.2 df(32)#58 - 0.2 dt(32)#59 >= 0
 c100: s(2)#36 - 0.4 x(3)#48 + _ec(3)#55 - 0.2 df(31)#56 - 0.2 dt(31)#57
       - 0.2 df(32)#58 - 0.2 dt(32)#59 - s(3)#60  = 0
 c101: s(2)#36 - 0.2 df(31)#56 - 0.2 df(32)#58 >= 0
 c102: df(31)#56 - 2 bn(312)#61 - an(31)#62  = 0
 c103: dt(31)#57 - 2 bp(312)#63 - ap(31)#64  = 0
 c104: df(32)#58 - 2 bn(321)#65 - 2 an(32)#66  = 0
 c105: dt(32)#59 - 2 bp(321)#67 - 2 ap(32)#68  = 0
 c106: - _ec(3)#55 + tn(3)#69 + tp(3)#70 >= 0
 c107: 120 y(31)#51 + 13.3333333333333 y(32)#52 - _ec(3)#55 - 2 bn(312)#61
       - an(31)#62 - 2 bp(312)#63 - ap(31)#64 - 0.666666666666667 bn(321)#65
       - 0.666666666666667 an(32)#66 - 0.666666666666667 bp(321)#67
       - 0.666666666666667 ap(32)#68 + tn(3)#69 + tp(3)#70 >= 0
 c108: 120 y(31)#51 + 13.3333333333333 y(32)#52 - 2 bn(312)#61 - an(31)#62
       - 2 bp(312)#63 - ap(31)#64 - 0.666666666666667 bn(321)#65
       - 0.666666666666667 an(32)#66 - 0.666666666666667 bp(321)#67
       - 0.666666666666667 ap(32)#68 - tp(3)#70 <= 0
 c109: 120 y(31)#51 + 13.3333333333333 y(32)#52 - 2 bn(312)#61 - an(31)#62
       - 2 bp(312)#63 - ap(31)#64 - 0.666666666666667 bn(321)#65
       - 0.666666666666667 an(32)#66 - 0.666666666666667 bp(321)#67
       - 0.666666666666667 ap(32)#68 - tn(3)#69 >= 0
 c110: _ec(3)#55 + sh(3)#71 <= 24
 c111: - y(31)#51 + an(31)#62 <= 0
 c112: x(2)#22 + an(31)#62 <= 0
 c113: - x(2)#22 - y(31)#51 + ap(31)#64 >= -1
 c114: - y(31)#51 + ap(31)#64 <= 0
 c115: ap(31)#64 - x(4)#72 <= 0
 c116: - y(31)#51 + ap(31)#64 - x(4)#72 >= -1
 c117: - y(21)#26 + bn(311)#73 <= 0
 c118: - y(31)#51 + bn(311)#73 <= 0
 c119: - y(21)#26 - y(31)#51 + bn(311)#73 >= -1
 c120: - y(31)#51 + bp(311)#74 <= 0
 c121: bp(311)#74 - y(41)#75 <= 0
 c122: - y(31)#51 + bp(311)#74 - y(41)#75 >= -1
 c123: - y(22)#28 + bn(312)#61 <= 0
 c124: - y(31)#51 + bn(312)#61 <= 0
 c125: - y(22)#28 - y(31)#51 + bn(312)#61 >= -1
 c126: - y(31)#51 + bp(312)#63 <= 0
 c127: bp(312)#63 - y(42)#76 <= 0
 c128: - y(31)#51 + bp(312)#63 - y(42)#76 >= -1
 c129: - y(32)#52 + an(32)#66 <= 0
 c130: x(2)#22 + an(32)#66 <= 0
 c131: - x(2)#22 - y(32)#52 + ap(32)#68 >= -1
 c132: - y(32)#52 + ap(32)#68 <= 0
 c133: ap(32)#68 - x(4)#72 <= 0
 c134: - y(32)#52 + ap(32)#68 - x(4)#72 >= -1
 c135: - y(21)#26 + bn(321)#65 <= 0
 c136: - y(32)#52 + bn(321)#65 <= 0
 c137: - y(21)#26 - y(32)#52 + bn(321)#65 >= -1
 c138: - y(32)#52 + bp(321)#67 <= 0
 c139: bp(321)#67 - y(41)#75 <= 0
 c140: - y(32)#52 + bp(321)#67 - y(41)#75 >= -1
 c141: - y(22)#28 + bn(322)#77 <= 0
 c142: - y(32)#52 + bn(322)#77 <= 0
 c143: - y(22)#28 - y(32)#52 + bn(322)#77 >= -1
 c144: - y(32)#52 + bp(322)#78 <= 0
 c145: - y(42)#76 + bp(322)#78 <= 0
 c146: - y(32)#52 - y(42)#76 + bp(322)#78 >= -1
 c147: - x(2)#22 - y(21)#26 - y(22)#28  = -1
 c148: s(3)#60 - 4 x(4)#72 + _ec(4)#79 - 0.2 df(41)#80 - 0.2 dt(41)#81
       - 0.2 df(42)#82 - 0.2 dt(42)#83 >= 0
 c149: s(3)#60 - 4 x(4)#72 + _ec(4)#79 - 0.2 df(41)#80 - 0.2 dt(41)#81
       - 0.2 df(42)#82 - 0.2 dt(42)#83 - s(4)#84  = 0
 c150: s(3)#60 - 0.2 df(41)#80 - 0.2 df(42)#82 >= 0
 c151: df(41)#80 - 2 bn(412)#85 - an(41)#86  = 0
 c152: dt(41)#81 - 2 bp(412)#87 - 2 ap(41)#88  = 0
 c153: df(42)#82 - 2 bn(421)#89 - 2 an(42)#90  = 0
 c154: dt(42)#83 - 2 bp(421)#91 - 2 ap(42)#92  = 0
 c155: - _ec(4)#79 + tn(4)#93 + tp(4)#94 >= 0
 c156: 60 y(41)#75 + 20 y(42)#76 - _ec(4)#79 - 2 bn(412)#85 - an(41)#86
       - 2 bp(412)#87 - 2 ap(41)#88 - 0.666666666666667 bn(421)#89
       - 0.666666666666667 an(42)#90 - 0.666666666666667 bp(421)#91
       - 0.666666666666667 ap(42)#92 + tn(4)#93 + tp(4)#94 >= 0
 c157: 60 y(41)#75 + 20 y(42)#76 - 2 bn(412)#85 - an(41)#86 - 2 bp(412)#87
       - 2 ap(41)#88 - 0.666666666666667 bn(421)#89
       - 0.666666666666667 an(42)#90 - 0.666666666666667 bp(421)#91
       - 0.666666666666667 ap(42)#92 - tp(4)#94 <= 0
 c158: 60 y(41)#75 + 20 y(42)#76 - 2 bn(412)#85 - an(41)#86 - 2 bp(412)#87
       - 2 ap(41)#88 - 0.666666666666667 bn(421)#89
       - 0.666666666666667 an(42)#90 - 0.666666666666667 bp(421)#91
       - 0.666666666666667 ap(42)#92 - tn(4)#93 >= 0
 c159: _ec(4)#79 + sh(4)#95 <= 24
 c160: - y(41)#75 + an(41)#86 <= 0
 c161: x(3)#48 + an(41)#86 <= 0
 c162: - x(3)#48 - y(41)#75 + ap(41)#88 >= -1
 c163: - y(41)#75 + ap(41)#88 <= 0
 c164: ap(41)#88 - x(5)#96 <= 0
 c165: - y(41)#75 + ap(41)#88 - x(5)#96 >= -1
 c166: - y(31)#51 + bn(411)#97 <= 0
 c167: - y(41)#75 + bn(411)#97 <= 0
 c168: - y(31)#51 - y(41)#75 + bn(411)#97 >= -1
 c169: - y(41)#75 + bp(411)#98 <= 0
 c170: bp(411)#98 - y(51)#99 <= 0
 c171: - y(41)#75 + bp(411)#98 - y(51)#99 >= -1
 c172: - y(32)#52 + bn(412)#85 <= 0
 c173: - y(41)#75 + bn(412)#85 <= 0
 c174: - y(32)#52 - y(41)#75 + bn(412)#85 >= -1
 c175: - y(41)#75 + bp(412)#87 <= 0
 c176: bp(412)#87 - y(52)#100 <= 0
 c177: - y(41)#75 + bp(412)#87 - y(52)#100 >= -1
 c178: - y(42)#76 + an(42)#90 <= 0
 c179: x(3)#48 + an(42)#90 <= 0
 c180: - x(3)#48 - y(42)#76 + ap(42)#92 >= -1
 c181: - y(42)#76 + ap(42)#92 <= 0
 c182: ap(42)#92 - x(5)#96 <= 0
 c183: - y(42)#76 + ap(42)#92 - x(5)#96 >= -1
 c184: - y(31)#51 + bn(421)#89 <= 0
 c185: - y(42)#76 + bn(421)#89 <= 0
 c186: - y(31)#51 - y(42)#76 + bn(421)#89 >= -1
 c187: - y(42)#76 + bp(421)#91 <= 0
 c188: bp(421)#91 - y(51)#99 <= 0
 c189: - y(42)#76 + bp(421)#91 - y(51)#99 >= -1
 c190: - y(32)#52 + bn(422)#101 <= 0
 c191: - y(42)#76 + bn(422)#101 <= 0
 c192: - y(32)#52 - y(42)#76 + bn(422)#101 >= -1
 c193: - y(42)#76 + bp(422)#102 <= 0
 c194: - y(52)#100 + bp(422)#102 <= 0
 c195: - y(42)#76 - y(52)#100 + bp(422)#102 >= -1
 c196: - x(3)#48 - y(31)#51 - y(32)#52  = -1
 c197: s(4)#84 - 4 x(5)#96 + _ec(5)#103 - 0.2 df(51)#104 - 0.2 dt(51)#105
       - 0.2 df(52)#106 - 0.2 dt(52)#107 >= 0
 c198: s(4)#84 - 4 x(5)#96 + _ec(5)#103 - 0.2 df(51)#104 - 0.2 dt(51)#105
       - 0.2 df(52)#106 - 0.2 dt(52)#107 - s(5)#108  = 0
 c199: s(4)#84 - 0.2 df(51)#104 - 0.2 df(52)#106 >= 0
 c200: df(51)#104 - 2 bn(512)#109 - 2 an(51)#110  = 0
 c201: dt(51)#105 - 2 bp(512)#111 - 2 ap(51)#112  = 0
 c202: df(52)#106 - 2 bn(521)#113 - 2 an(52)#114  = 0
 c203: dt(52)#107 - 2 bp(521)#115 - 2 ap(52)#116  = 0
 c204: - _ec(5)#103 + tn(5)#117 + tp(5)#118 >= 0
 c205: 60 y(51)#99 + 20 y(52)#100 - _ec(5)#103 - 2 bn(512)#109 - 2 an(51)#110
       - 2 bp(512)#111 - 2 ap(51)#112 - 0.666666666666667 bn(521)#113
       - 0.666666666666667 an(52)#114 - 0.666666666666667 bp(521)#115
       - 0.666666666666667 ap(52)#116 + tn(5)#117 + tp(5)#118 >= 0
 c206: 60 y(51)#99 + 20 y(52)#100 - 2 bn(512)#109 - 2 an(51)#110
       - 2 bp(512)#111 - 2 ap(51)#112 - 0.666666666666667 bn(521)#113
       - 0.666666666666667 an(52)#114 - 0.666666666666667 bp(521)#115
       - 0.666666666666667 ap(52)#116 - tp(5)#118 <= 0
 c207: 60 y(51)#99 + 20 y(52)#100 - 2 bn(512)#109 - 2 an(51)#110
       - 2 bp(512)#111 - 2 ap(51)#112 - 0.666666666666667 bn(521)#113
       - 0.666666666666667 an(52)#114 - 0.666666666666667 bp(521)#115
       - 0.666666666666667 ap(52)#116 - tn(5)#117 >= 0
 c208: _ec(5)#103 + sh(5)#119 <= 24
 c209: - y(51)#99 + an(51)#110 <= 0
 c210: x(4)#72 + an(51)#110 <= 0
 c211: - x(4)#72 - y(51)#99 + ap(51)#112 >= -1
 c212: - y(51)#99 + ap(51)#112 <= 0
 c213: ap(51)#112 - x(6)#120 <= 0
 c214: - y(51)#99 + ap(51)#112 - x(6)#120 >= -1
 c215: - y(41)#75 + bn(511)#121 <= 0
 c216: - y(51)#99 + bn(511)#121 <= 0
 c217: - y(41)#75 - y(51)#99 + bn(511)#121 >= -1
 c218: - y(51)#99 + bp(511)#122 <= 0
 c219: bp(511)#122 - y(61)#123 <= 0
 c220: - y(51)#99 + bp(511)#122 - y(61)#123 >= -1
 c221: - y(42)#76 + bn(512)#109 <= 0
 c222: - y(51)#99 + bn(512)#109 <= 0
 c223: - y(42)#76 - y(51)#99 + bn(512)#109 >= -1
 c224: - y(51)#99 + bp(512)#111 <= 0
 c225: bp(512)#111 - y(62)#124 <= 0
 c226: - y(51)#99 + bp(512)#111 - y(62)#124 >= -1
 c227: - y(52)#100 + an(52)#114 <= 0
 c228: x(4)#72 + an(52)#114 <= 0
 c229: - x(4)#72 - y(52)#100 + ap(52)#116 >= -1
 c230: - y(52)#100 + ap(52)#116 <= 0
 c231: ap(52)#116 - x(6)#120 <= 0
 c232: - y(52)#100 + ap(52)#116 - x(6)#120 >= -1
 c233: - y(41)#75 + bn(521)#113 <= 0
 c234: - y(52)#100 + bn(521)#113 <= 0
 c235: - y(41)#75 - y(52)#100 + bn(521)#113 >= -1
 c236: - y(52)#100 + bp(521)#115 <= 0
 c237: bp(521)#115 - y(61)#123 <= 0
 c238: - y(52)#100 + bp(521)#115 - y(61)#123 >= -1
 c239: - y(42)#76 + bn(522)#125 <= 0
 c240: - y(52)#100 + bn(522)#125 <= 0
 c241: - y(42)#76 - y(52)#100 + bn(522)#125 >= -1
 c242: - y(52)#100 + bp(522)#126 <= 0
 c243: - y(62)#124 + bp(522)#126 <= 0
 c244: - y(52)#100 - y(62)#124 + bp(522)#126 >= -1
 c245: - x(4)#72 - y(41)#75 - y(42)#76  = -1
 c246: x(0)#21  = 1
 c247: x(6)#120  = 1
 c248: s(0)#0  = 24
 c249: y(01)#24  = 0
 c250: y(61)#123  = 0
 c251: y(02)#27  = 0
 c252: y(62)#124  = 0
Bounds
 0 <= s(0)#0 <= 24
 0 <= _ec(1)#1 <= 24
 0 <= x(1)#2 <= 1
 0 <= df(11)#3 <= 1000
 0 <= dt(11)#4 <= 1000
 0 <= df(12)#5 <= 1000
 0 <= dt(12)#6 <= 1000
 0 <= s(1)#7 <= 24
 0 <= bn(112)#8 <= 1
 0 <= an(11)#9 <= 1
 0 <= bp(112)#10 <= 1
 0 <= ap(11)#11 <= 1
 0 <= bn(121)#12 <= 1
 0 <= an(12)#13 <= 1
 0 <= bp(121)#14 <= 1
 0 <= ap(12)#15 <= 1
 0 <= tn(1)#16 <= 24
 0 <= tp(1)#17 <= 24
 0 <= y(11)#18 <= 1
 0 <= y(12)#19 <= 1
 0 <= sh(1)#20 <= 24
 0 <= x(0)#21 <= 1
 0 <= x(2)#22 <= 1
 0 <= bn(111)#23 <= 1
 0 <= y(01)#24 <= 1
 0 <= bp(111)#25 <= 1
 0 <= y(21)#26 <= 1
 0 <= y(02)#27 <= 1
 0 <= y(22)#28 <= 1
 0 <= bn(122)#29 <= 1
 0 <= bp(122)#30 <= 1
 0 <= _ec(2)#31 <= 24
 0 <= df(21)#32 <= 1000
 0 <= dt(21)#33 <= 1000
 0 <= df(22)#34 <= 1000
 0 <= dt(22)#35 <= 1000
 0 <= s(2)#36 <= 24
 0 <= bn(212)#37 <= 1
 0 <= an(21)#38 <= 1
 0 <= bp(212)#39 <= 1
 0 <= ap(21)#40 <= 1
 0 <= bn(221)#41 <= 1
 0 <= an(22)#42 <= 1
 0 <= bp(221)#43 <= 1
 0 <= ap(22)#44 <= 1
 0 <= tn(2)#45 <= 24
 0 <= tp(2)#46 <= 24
 0 <= sh(2)#47 <= 24
 0 <= x(3)#48 <= 1
 0 <= bn(211)#49 <= 1
 0 <= bp(211)#50 <= 1
 0 <= y(31)#51 <= 1
 0 <= y(32)#52 <= 1
 0 <= bn(222)#53 <= 1
 0 <= bp(222)#54 <= 1
 0 <= _ec(3)#55 <= 24
 0 <= df(31)#56 <= 1000
 0 <= dt(31)#57 <= 1000
 0 <= df(32)#58 <= 1000
 0 <= dt(32)#59 <= 1000
 0 <= s(3)#60 <= 24
 0 <= bn(312)#61 <= 1
 0 <= an(31)#62 <= 1
 0 <= bp(312)#63 <= 1
 0 <= ap(31)#64 <= 1
 0 <= bn(321)#65 <= 1
 0 <= an(32)#66 <= 1
 0 <= bp(321)#67 <= 1
 0 <= ap(32)#68 <= 1
 0 <= tn(3)#69 <= 24
 0 <= tp(3)#70 <= 24
 0 <= sh(3)#71 <= 24
 0 <= x(4)#72 <= 1
 0 <= bn(311)#73 <= 1
 0 <= bp(311)#74 <= 1
 0 <= y(41)#75 <= 1
 0 <= y(42)#76 <= 1
 0 <= bn(322)#77 <= 1
 0 <= bp(322)#78 <= 1
 0 <= _ec(4)#79 <= 24
 0 <= df(41)#80 <= 1000
 0 <= dt(41)#81 <= 1000
 0 <= df(42)#82 <= 1000
 0 <= dt(42)#83 <= 1000
 0 <= s(4)#84 <= 24
 0 <= bn(412)#85 <= 1
 0 <= an(41)#86 <= 1
 0 <= bp(412)#87 <= 1
 0 <= ap(41)#88 <= 1
 0 <= bn(421)#89 <= 1
 0 <= an(42)#90 <= 1
 0 <= bp(421)#91 <= 1
 0 <= ap(42)#92 <= 1
 0 <= tn(4)#93 <= 24
 0 <= tp(4)#94 <= 24
 0 <= sh(4)#95 <= 24
 0 <= x(5)#96 <= 1
 0 <= bn(411)#97 <= 1
 0 <= bp(411)#98 <= 1
 0 <= y(51)#99 <= 1
 0 <= y(52)#100 <= 1
 0 <= bn(422)#101 <= 1
 0 <= bp(422)#102 <= 1
 0 <= _ec(5)#103 <= 24
 0 <= df(51)#104 <= 1000
 0 <= dt(51)#105 <= 1000
 0 <= df(52)#106 <= 1000
 0 <= dt(52)#107 <= 1000
 0 <= s(5)#108 <= 24
 0 <= bn(512)#109 <= 1
 0 <= an(51)#110 <= 1
 0 <= bp(512)#111 <= 1
 0 <= ap(51)#112 <= 1
 0 <= bn(521)#113 <= 1
 0 <= an(52)#114 <= 1
 0 <= bp(521)#115 <= 1
 0 <= ap(52)#116 <= 1
 0 <= tn(5)#117 <= 24
 0 <= tp(5)#118 <= 24
 0 <= sh(5)#119 <= 24
 0 <= x(6)#120 <= 1
 0 <= bn(511)#121 <= 1
 0 <= bp(511)#122 <= 1
 0 <= y(61)#123 <= 1
 0 <= y(62)#124 <= 1
 0 <= bn(522)#125 <= 1
 0 <= bp(522)#126 <= 1
Binaries
 x(1)#2  bn(112)#8  an(11)#9  bp(112)#10  ap(11)#11  bn(121)#12  an(12)#13 
 bp(121)#14  ap(12)#15  y(11)#18  y(12)#19  x(0)#21  x(2)#22  bn(111)#23 
 y(01)#24  bp(111)#25  y(21)#26  y(02)#27  y(22)#28  bn(122)#29  bp(122)#30 
 bn(212)#37  an(21)#38  bp(212)#39  ap(21)#40  bn(221)#41  an(22)#42 
 bp(221)#43  ap(22)#44  x(3)#48  bn(211)#49  bp(211)#50  y(31)#51  y(32)#52 
 bn(222)#53  bp(222)#54  bn(312)#61  an(31)#62  bp(312)#63  ap(31)#64 
 bn(321)#65  an(32)#66  bp(321)#67  ap(32)#68  x(4)#72  bn(311)#73  bp(311)#74 
 y(41)#75  y(42)#76  bn(322)#77  bp(322)#78  bn(412)#85  an(41)#86  bp(412)#87 
 ap(41)#88  bn(421)#89  an(42)#90  bp(421)#91  ap(42)#92  x(5)#96  bn(411)#97 
 bp(411)#98  y(51)#99  y(52)#100  bn(422)#101  bp(422)#102  bn(512)#109 
 an(51)#110  bp(512)#111  ap(51)#112  bn(521)#113  an(52)#114  bp(521)#115 
 ap(52)#116  x(6)#120  bn(511)#121  bp(511)#122  y(61)#123  y(62)#124 
 bn(522)#125  bp(522)#126 
End
